97 58 
69 41 
1 98 
13 65 
43 33 
36 53 
45 17 
7 72 
48 11 
15 0 
50 29 
84 32 
13 49 
59 2 
18 32 
8 67 
42 29 
9 44 
79 74 
61 75 
60 49 
80 5 
67 88 
29 67 
99 45 
67 1 
26 3 
34 91 
4 93 
93 23 
77 1 
42 20 
83 51 
16 62 
78 29 
89 90 
78 70 
47 97 
10 76 
64 61 
21 31 
62 99 
35 96 
91 91 
41 84 
14 71 
38 57 
43 21 
60 59 
35 90 
